models/cnf/JHipster.cnf
p cnf 45 104
c 1 JHipster
c 2 Generator
c 3 Server
c 4 Application
c 5 MicroserviceApplication
c 6 UaaServer
c 7 MicroserviceGateway
c 8 Monolithic
c 9 Authentication
c 10 HTTPSession
c 11 OAuth2
c 12 Uaa
c 13 JWT
c 14 SocialLogin
c 15 Database
c 16 SQL
c 17 Cassandra
c 18 MongoDB
c 19 Hibernate2ndLvlCache
c 20 HazelCast
c 21 EhCache
c 22 Development
c 23 H2
c 24 PostgreSQLDev
c 25 MariaDBDev
c 26 MySql
c 27 DiskBased
c 28 InMemory
c 29 Production
c 30 MySQL
c 31 MariaDB
c 32 PostgreSQL
c 33 ElasticSearch
c 34 SpringWebSockets
c 35 Libsass
c 36 ClusteredSession
c 37 BackEnd
c 38 Gradle
c 39 Maven
c 40 InternationalizationSupport
c 41 Docker
c 42 TestingFrameworks
c 43 Protractor
c 44 Gatling
c 45 Cucumber
1
-1 2
-2 1
-2 3 4
-3 -4
-3 2
-4 2
-3 5 6
-5 -6
-5 3
-6 3
-4 7 8
-7 -8
-7 4
-8 4
-1 9
-9 1
-9 10 11 12 13
-10 -11
-10 -12
-10 -13
-10 9
-11 -12
-11 -13
-11 9
-12 -13
-12 9
-13 9
-14 1
-15 1
-15 16 17 18
-16 -17
-16 -18
-16 15
-17 -18
-17 15
-18 15
-19 16
-19 20 21
-20 -21
-20 19
-21 19
-16 22
-22 16
-22 23 24 25 26
-23 -24
-23 -25
-23 -26
-23 22
-24 -25
-24 -26
-24 22
-25 -26
-25 22
-26 22
-23 27 28
-27 -28
-27 23
-28 23
-16 29
-29 16
-29 30 31 32
-30 -31
-30 -32
-30 29
-31 -32
-31 29
-32 29
-33 16
-34 1
-35 1
-36 1
-1 37
-37 1
-37 38 39
-38 -39
-38 37
-39 37
-40 1
-41 1
-1 42
-42 1
-43 42
-42 44
-44 42
-42 45
-45 42
-11 14 5 16 18
-14 10 13
-14 8
-14 16 18
-6 12
11 14 5 16 18 17
-3 -43
3 43
-30 23 26
-5 13 12
-7 13 12
-8 13 10 11
-31 23 25
-32 23 24
-34 4
-36 4
-35 4